puffin_milp.lp
Minimize
    a00 + a01 + a02 + a03 + a04 + a05 + a06 + a07 + a08 + a09 + a10 + a11 + a12 + a13 + a14 + a15
Subject To
    R0: x000 + x001 + x002 + x003 + x010 + x011 + x012 + x013 + x020 + x021 + x022 + x023 + x030 + x031 + x032 + x033 + x040 + x041 + x042 + x043 + x050 + x051 + x052 + x053 + x060 + x061 + x062 + x063 + x070 + x071 + x072 + x073 + x080 + x081 + x082 + x083 + x090 + x091 + x092 + x093 + x100 + x101 + x102 + x103 + x110 + x111 + x112 + x113 + x120 + x121 + x122 + x123 + x130 + x131 + x132 + x133 + x140 + x141 + x142 + x143 + x150 + x151 + x152 + x153 >= 1
    R1: x000 - a00 <= 0
    R2: x001 - a00 <= 0
    R3: x002 - a00 <= 0
    R4: x003 - a00 <= 0
    R5: x000 + x001 + x002 + x003 - a00 >= 0
    R6: 4 x1000 + 4 x1001 + 4 x1002 + 4 x1003 - x000 - x001 - x002 - x003 >= 0
    R7: 4 x000 + 4 x001 + 4 x002 + 4 x003 - x1000 - x1001 - x1002 - x1003 >= 0
    R8: x000 + x001 + x002 + x003 + x1000 + x1001 + x1002 + x1003 - 4a00 >= 0
    R9: x010 - a01 <= 0
    R10: x011 - a01 <= 0
    R11: x012 - a01 <= 0
    R12: x013 - a01 <= 0
    R13: x010 + x011 + x012 + x013 - a01 >= 0
    R14: 4 x1010 + 4 x1011 + 4 x1012 + 4 x1013 - x010 - x011 - x012 - x013 >= 0
    R15: 4 x010 + 4 x011 + 4 x012 + 4 x013 - x1010 - x1011 - x1012 - x1013 >= 0
    R16: x010 + x011 + x012 + x013 + x1010 + x1011 + x1012 + x1013 - 4a01 >= 0
    R17: x020 - a02 <= 0
    R18: x021 - a02 <= 0
    R19: x022 - a02 <= 0
    R20: x023 - a02 <= 0
    R21: x020 + x021 + x022 + x023 - a02 >= 0
    R22: 4 x1020 + 4 x1021 + 4 x1022 + 4 x1023 - x020 - x021 - x022 - x023 >= 0
    R23: 4 x020 + 4 x021 + 4 x022 + 4 x023 - x1020 - x1021 - x1022 - x1023 >= 0
    R24: x020 + x021 + x022 + x023 + x1020 + x1021 + x1022 + x1023 - 4a02 >= 0
    ...
    R128: x150 + x151 + x152 + x153 + x1150 + x1151 + x1152 + x1153 - 4a15 >= 0
Bounds
    0 <= x000
    0 <= x001
    0 <= x002
    0 <= x003
    0 <= a00
    0 <= x010
    0 <= x011
    0 <= x012
    0 <= x013
    0 <= a01
    0 <= x020
    0 <= x021
    0 <= x022
    0 <= x023
    0 <= a02
    0 <= x030
    0 <= x031
    0 <= x032
    0 <= x033
    0 <= a03
    0 <= x040
    0 <= x041
    0 <= x042
    0 <= x043
    0 <= a04
    0 <= x050
    0 <= x051
    0 <= x052
    0 <= x053
    0 <= a05
    0 <= x060
    0 <= x061
    0 <= x062
    0 <= x063
    0 <= a06
    0 <= x070
    0 <= x071
    0 <= x072
    0 <= x073
    0 <= a07
    0 <= x080
    0 <= x081
    0 <= x082
    0 <= x083
    0 <= a08
    0 <= x090
    0 <= x091
    0 <= x092
    0 <= x093
    0 <= a09
    0 <= x100
    0 <= x101
    0 <= x102
    0 <= x103
    0 <= a10
    0 <= x110
    0 <= x111
    0 <= x112
    0 <= x113
    0 <= a11
    0 <= x120
    0 <= x121
    0 <= x122
    0 <= x123
    0 <= a12
    0 <= x130
    0 <= x131
    0 <= x132
    0 <= x133
    0 <= a13
    0 <= x140
    0 <= x141
    0 <= x142
    0 <= x143
    0 <= a14
    0 <= x150
    0 <= x151
    0 <= x152
    0 <= x153
    0 <= a15
Binary
    x000, x001, x002, x003, x010, x011, x012, x013, x020, x021, x022, x023, x030, x031, x032, x033, x040, x041, x042, x043, x050, x051, x052, x053, x060, x061, x062, x063, x070, x071, x072, x073, x080, x081, x082, x083, x090, x091, x092, x093, x100, x101, x102, x103, x110, x111, x112, x113, x120, x121, x122, x123, x130, x131, x132, x133, x140, x141, x142, x143, x150, x151, x152, x153
Generals
    a00, a01, a02, a03, a04, a05, a06, a07, a08, a09, a10, a11, a12, a13, a14, a15
End
